sat
(model 
  (define-fun |required(ezcsp__eq(nWeight(5),ezcsp__pl(nWeight(4),38)))| () Bool
    false)
  (define-fun |required(ezcsp__eq(nWeight(6),ezcsp__pl(nWeight(5),13)))| () Bool
    false)
  (define-fun |leafPos(8,6)| () Bool
    false)
  (define-fun |nWeight(6)| () Int
    71)
  (define-fun |required(ezcsp__eq(nWeight(1),84))| () Bool
    false)
  (define-fun |posColor(4,blue)| () Bool
    false)
  (define-fun |required(ezcsp__gt(nWeight(6),ezcsp__mn(ezcsp__pl(13,95),13)))| () Bool
    false)
  (define-fun |required(ezcsp__eq(nWeight(6),165))| () Bool
    false)
  (define-fun |required(ezcsp__eq(nWeight(2),ezcsp__pl(nWeight(1),33)))| () Bool
    false)
  (define-fun |nWeight(5)| () Int
    98)
  (define-fun |leafPos(5,5)| () Bool
    false)
  (define-fun |required(ezcsp__leq(nWeight(1),ezcsp__mn(ezcsp__pl(22,48),22)))| () Bool
    false)
  (define-fun |478| () Bool
    false)
  (define-fun |leafPos(8,1)| () Bool
    true)
  (define-fun |required(ezcsp__eq(nWeight(1),96))| () Bool
    false)
  (define-fun |required(ezcsp__eq(nWeight(6),175))| () Bool
    false)
  (define-fun |required(ezcsp__eq(nWeight(3),71))| () Bool
    false)
  (define-fun |leafPos(3,7)| () Bool
    true)
  (define-fun |required(ezcsp__eq(nWeight(1),51))| () Bool
    false)
  (define-fun |458| () Bool
    false)
  (define-fun |required(ezcsp__eq(nWeight(5),121))| () Bool
    false)
  (define-fun |required(ezcsp__eq(nWeight(1),131))| () Bool
    false)
  (define-fun |462| () Bool
    false)
  (define-fun |leafPos(7,3)| () Bool
    false)
  (define-fun |required(ezcsp__eq(nWeight(2),ezcsp__pl(nWeight(1),22)))| () Bool
    false)
  (define-fun |required(ezcsp__eq(nWeight(4),ezcsp__pl(nWeight(3),71)))| () Bool
    true)
  (define-fun |leafPos(1,6)| () Bool
    false)
  (define-fun |required(ezcsp__gt(nWeight(1),ezcsp__mn(ezcsp__pl(71,94),71)))| () Bool
    false)
  (define-fun |posColor(6,blue)| () Bool
    false)
  (define-fun |470| () Bool
    false)
  (define-fun |leafPos(4,2)| () Bool
    false)
  (define-fun |required(ezcsp__eq(nWeight(2),121))| () Bool
    false)
  (define-fun |posColor(3,blue)| () Bool
    false)
  (define-fun |posColor(1,green)| () Bool
    false)
  (define-fun |427| () Bool
    false)
  (define-fun |required(ezcsp__eq(nWeight(4),165))| () Bool
    false)
  (define-fun |required(ezcsp__gt(nWeight(5),ezcsp__mn(ezcsp__pl(71,94),71)))| () Bool
    false)
  (define-fun |leafPos(7,7)| () Bool
    false)
  (define-fun |required(ezcsp__eq(nWeight(1),110))| () Bool
    false)
  (define-fun |leafPos(5,7)| () Bool
    false)
  (define-fun |required(ezcsp__eq(nWeight(7),ezcsp__pl(nWeight(6),71)))| () Bool
    false)
  (define-fun |leafPos(3,1)| () Bool
    false)
  (define-fun |required(ezcsp__leq(nWeight(4),ezcsp__mn(ezcsp__pl(92,83),83)))| () Bool
    false)
  (define-fun |required(ezcsp__eq(nWeight(5),108))| () Bool
    false)
  (define-fun |required(ezcsp__eq(nWeight(4),ezcsp__pl(nWeight(3),33)))| () Bool
    false)
  (define-fun |leafPos(2,6)| () Bool
    false)
  (define-fun |required(ezcsp__eq(nWeight(4),70))| () Bool
    false)
  (define-fun |required(ezcsp__eq(nWeight(1),69))| () Bool
    false)
  (define-fun |leafPos(1,5)| () Bool
    false)
  (define-fun |leafPos(2,3)| () Bool
    true)
  (define-fun |required(ezcsp__eq(nWeight(1),113))| () Bool
    false)
  (define-fun |required(ezcsp__eq(nWeight(3),ezcsp__pl(nWeight(2),38)))| () Bool
    false)
  (define-fun |446| () Bool
    false)
  (define-fun |posColor(5,red)| () Bool
    false)
  (define-fun |required(ezcsp__leq(nWeight(5),ezcsp__mn(ezcsp__pl(71,94),71)))| () Bool
    false)
  (define-fun |required(ezcsp__gt(nWeight(5),ezcsp__mn(ezcsp__pl(31,40),31)))| () Bool
    true)
  (define-fun |nWeight(3)| () Int
    70)
  (define-fun |464| () Bool
    false)
  (define-fun |leafPos(7,5)| () Bool
    false)
  (define-fun |461| () Bool
    false)
  (define-fun |leafPos(4,0)| () Bool
    false)
  (define-fun |required(ezcsp__eq(nWeight(7),ezcsp__pl(nWeight(6),53)))| () Bool
    false)
  (define-fun |required(ezcsp__gt(nWeight(5),ezcsp__mn(ezcsp__pl(92,83),83)))| () Bool
    false)
  (define-fun |required(ezcsp__eq(nWeight(1),44))| () Bool
    false)
  (define-fun |required(ezcsp__eq(nWeight(1),46))| () Bool
    true)
  (define-fun |leafPos(6,6)| () Bool
    false)
  (define-fun |required(ezcsp__eq(nWeight(6),ezcsp__pl(nWeight(5),53)))| () Bool
    false)
  (define-fun |required(ezcsp__eq(nWeight(1),91))| () Bool
    false)
  (define-fun |required(ezcsp__eq(nWeight(6),ezcsp__pl(nWeight(5),31)))| () Bool
    false)
  (define-fun |required(ezcsp__leq(nWeight(2),ezcsp__mn(ezcsp__pl(13,95),13)))| () Bool
    false)
  (define-fun |required(ezcsp__gt(nWeight(2),ezcsp__mn(ezcsp__pl(60,38),38)))| () Bool
    false)
  (define-fun |required(ezcsp__eq(nWeight(2),175))| () Bool
    false)
  (define-fun |required(ezcsp__eq(nWeight(4),151))| () Bool
    false)
  (define-fun |required(ezcsp__eq(nWeight(1),136))| () Bool
    false)
  (define-fun |required(ezcsp__gt(nWeight(2),ezcsp__mn(ezcsp__pl(53,98),53)))| () Bool
    false)
  (define-fun |posColor(3,red)| () Bool
    false)
  (define-fun |431| () Bool
    false)
  (define-fun |required(ezcsp__eq(nWeight(1),93))| () Bool
    false)
  (define-fun |432| () Bool
    false)
  (define-fun |required(ezcsp__eq(nWeight(1),125))| () Bool
    false)
  (define-fun |required(ezcsp__leq(nWeight(2),ezcsp__mn(ezcsp__pl(31,40),31)))| () Bool
    false)
  (define-fun |posColor(5,blue)| () Bool
    false)
  (define-fun |leafPos(4,3)| () Bool
    false)
  (define-fun |required(ezcsp__eq(nWeight(2),ezcsp__pl(nWeight(1),83)))| () Bool
    false)
  (define-fun |434| () Bool
    false)
  (define-fun |required(ezcsp__eq(nWeight(6),108))| () Bool
    false)
  (define-fun |required(ezcsp__leq(nWeight(1),ezcsp__mn(ezcsp__pl(60,38),38)))| () Bool
    false)
  (define-fun |required(ezcsp__gt(nWeight(2),ezcsp__mn(ezcsp__pl(31,40),31)))| () Bool
    false)
  (define-fun |467| () Bool
    false)
  (define-fun |leafPos(2,7)| () Bool
    false)
  (define-fun |required(ezcsp__gt(nWeight(6),ezcsp__mn(ezcsp__pl(60,38),38)))| () Bool
    false)
  (define-fun |required(ezcsp__eq(nWeight(1),66))| () Bool
    false)
  (define-fun |required(ezcsp__eq(nWeight(1),159))| () Bool
    false)
  (define-fun |leafPos(2,1)| () Bool
    false)
  (define-fun |required(ezcsp__eq(nWeight(1),141))| () Bool
    false)
  (define-fun |required(ezcsp__gt(nWeight(6),ezcsp__mn(ezcsp__pl(71,94),71)))| () Bool
    false)
  (define-fun |leafPos(4,6)| () Bool
    false)
  (define-fun |required(ezcsp__gt(nWeight(5),ezcsp__mn(ezcsp__pl(88,33),33)))| () Bool
    false)
  (define-fun |leafPos(5,0)| () Bool
    false)
  (define-fun |required(ezcsp__eq(nWeight(3),ezcsp__pl(nWeight(2),31)))| () Bool
    false)
  (define-fun |required(ezcsp__eq(nWeight(7),108))| () Bool
    false)
  (define-fun |required(ezcsp__gt(nWeight(4),ezcsp__mn(ezcsp__pl(31,40),31)))| () Bool
    false)
  (define-fun |posColor(2,blue)| () Bool
    false)
  (define-fun |leafPos(7,4)| () Bool
    false)
  (define-fun |required(ezcsp__eq(nWeight(7),98))| () Bool
    false)
  (define-fun |required(ezcsp__leq(nWeight(1),ezcsp__mn(ezcsp__pl(92,83),83)))| () Bool
    false)
  (define-fun |required(ezcsp__leq(nWeight(4),ezcsp__mn(ezcsp__pl(31,40),31)))| () Bool
    false)
  (define-fun |required(ezcsp__leq(nWeight(6),ezcsp__mn(ezcsp__pl(60,38),38)))| () Bool
    false)
  (define-fun |468| () Bool
    false)
  (define-fun |posColor(2,green)| () Bool
    false)
  (define-fun |428| () Bool
    false)
  (define-fun |required(ezcsp__eq(nWeight(1),124))| () Bool
    false)
  (define-fun |leafPos(4,5)| () Bool
    true)
  (define-fun |480| () Bool
    false)
  (define-fun |required(ezcsp__gt(nWeight(6),ezcsp__mn(ezcsp__pl(88,33),33)))| () Bool
    false)
  (define-fun |leafPos(6,7)| () Bool
    false)
  (define-fun |459| () Bool
    false)
  (define-fun |leafPos(6,2)| () Bool
    false)
  (define-fun |required(ezcsp__gt(nWeight(4),ezcsp__mn(ezcsp__pl(60,38),38)))| () Bool
    true)
  (define-fun |leafPos(4,1)| () Bool
    false)
  (define-fun |required(ezcsp__eq(nWeight(3),ezcsp__pl(nWeight(2),53)))| () Bool
    false)
  (define-fun |required(ezcsp__gt(nWeight(3),ezcsp__mn(ezcsp__pl(31,40),31)))| () Bool
    false)
  (define-fun |required(ezcsp__leq(nWeight(5),ezcsp__mn(ezcsp__pl(22,48),22)))| () Bool
    false)
  (define-fun |required(ezcsp__leq(nWeight(3),ezcsp__mn(ezcsp__pl(22,48),22)))| () Bool
    false)
  (define-fun |required(ezcsp__eq(nWeight(5),165))| () Bool
    false)
  (define-fun |required(ezcsp__eq(nWeight(2),ezcsp__pl(nWeight(1),71)))| () Bool
    false)
  (define-fun |required(ezcsp__gt(nWeight(3),ezcsp__mn(ezcsp__pl(92,83),83)))| () Bool
    false)
  (define-fun |required(ezcsp__eq(nWeight(6),ezcsp__pl(nWeight(5),71)))| () Bool
    false)
  (define-fun |455| () Bool
    false)
  (define-fun |required(ezcsp__eq(nWeight(1),26))| () Bool
    false)
  (define-fun |leafPos(8,5)| () Bool
    false)
  (define-fun |required(ezcsp__gt(nWeight(2),ezcsp__mn(ezcsp__pl(13,95),13)))| () Bool
    false)
  (define-fun |required(ezcsp__eq(nWeight(2),98))| () Bool
    false)
  (define-fun |required(ezcsp__eq(nWeight(1),86))| () Bool
    false)
  (define-fun |444| () Bool
    false)
  (define-fun |required(ezcsp__eq(nWeight(5),ezcsp__pl(nWeight(4),53)))| () Bool
    false)
  (define-fun |required(ezcsp__eq(nWeight(1),108))| () Bool
    false)
  (define-fun |437| () Bool
    false)
  (define-fun |433| () Bool
    false)
  (define-fun |required(ezcsp__eq(nWeight(4),108))| () Bool
    false)
  (define-fun |leafPos(2,5)| () Bool
    false)
  (define-fun |required(ezcsp__eq(nWeight(2),151))| () Bool
    false)
  (define-fun |required(ezcsp__eq(nWeight(6),ezcsp__pl(nWeight(5),33)))| () Bool
    false)
  (define-fun |required(ezcsp__eq(nWeight(6),98))| () Bool
    false)
  (define-fun |required(ezcsp__eq(nWeight(3),ezcsp__pl(nWeight(2),13)))| () Bool
    false)
  (define-fun |required(ezcsp__eq(nWeight(5),ezcsp__pl(nWeight(4),71)))| () Bool
    false)
  (define-fun |required(ezcsp__gt(nWeight(3),ezcsp__mn(ezcsp__pl(53,98),53)))| () Bool
    false)
  (define-fun |required(ezcsp__gt(nWeight(1),ezcsp__mn(ezcsp__pl(22,48),22)))| () Bool
    false)
  (define-fun |posColor(4,green)| () Bool
    false)
  (define-fun |leafPos(4,7)| () Bool
    false)
  (define-fun |required(ezcsp__gt(nWeight(1),ezcsp__mn(ezcsp__pl(60,38),38)))| () Bool
    false)
  (define-fun |required(ezcsp__eq(nWeight(2),71))| () Bool
    false)
  (define-fun |required(ezcsp__gt(nWeight(6),ezcsp__mn(ezcsp__pl(22,48),22)))| () Bool
    false)
  (define-fun |required(ezcsp__leq(nWeight(3),ezcsp__mn(ezcsp__pl(13,95),13)))| () Bool
    false)
  (define-fun |leafPos(7,0)| () Bool
    false)
  (define-fun |required(ezcsp__eq(nWeight(4),98))| () Bool
    false)
  (define-fun |required(ezcsp__gt(nWeight(4),ezcsp__mn(ezcsp__pl(13,95),13)))| () Bool
    false)
  (define-fun |required(ezcsp__gt(nWeight(3),ezcsp__mn(ezcsp__pl(71,94),71)))| () Bool
    false)
  (define-fun |required(ezcsp__gt(nWeight(2),ezcsp__mn(ezcsp__pl(22,48),22)))| () Bool
    true)
  (define-fun |required(ezcsp__eq(nWeight(7),70))| () Bool
    false)
  (define-fun |required(ezcsp__eq(nWeight(1),171))| () Bool
    false)
  (define-fun |required(ezcsp__eq(nWeight(6),ezcsp__pl(nWeight(5),83)))| () Bool
    false)
  (define-fun |451| () Bool
    false)
  (define-fun |required(ezcsp__eq(nWeight(1),101))| () Bool
    false)
  (define-fun |required(ezcsp__eq(nWeight(1),102))| () Bool
    false)
  (define-fun |required(ezcsp__eq(nWeight(7),165))| () Bool
    false)
  (define-fun |required(ezcsp__eq(nWeight(1),143))| () Bool
    false)
  (define-fun |leafPos(2,4)| () Bool
    false)
  (define-fun |posColor(6,red)| () Bool
    false)
  (define-fun |482| () Bool
    false)
  (define-fun |required(ezcsp__eq(nWeight(7),ezcsp__pl(nWeight(6),33)))| () Bool
    false)
  (define-fun |required(ezcsp__eq(nWeight(1),64))| () Bool
    false)
  (define-fun |required(ezcsp__gt(nWeight(2),ezcsp__mn(ezcsp__pl(88,33),33)))| () Bool
    false)
  (define-fun |required(ezcsp__gt(nWeight(2),ezcsp__mn(ezcsp__pl(92,83),83)))| () Bool
    false)
  (define-fun |450| () Bool
    false)
  (define-fun |required(ezcsp__eq(nWeight(3),ezcsp__pl(nWeight(2),71)))| () Bool
    false)
  (define-fun |441| () Bool
    true)
  (define-fun |required(ezcsp__eq(nWeight(4),121))| () Bool
    false)
  (define-fun |479| () Bool
    false)
  (define-fun |required(ezcsp__eq(nWeight(3),ezcsp__pl(nWeight(2),33)))| () Bool
    false)
  (define-fun |required(ezcsp__leq(nWeight(2),ezcsp__mn(ezcsp__pl(22,48),22)))| () Bool
    false)
  (define-fun |required(ezcsp__gt(nWeight(4),ezcsp__mn(ezcsp__pl(53,98),53)))| () Bool
    false)
  (define-fun |430| () Bool
    false)
  (define-fun |required(ezcsp__eq(nWeight(1),75))| () Bool
    false)
  (define-fun |required(ezcsp__eq(nWeight(1),98))| () Bool
    false)
  (define-fun |required(ezcsp__leq(nWeight(6),ezcsp__mn(ezcsp__pl(22,48),22)))| () Bool
    false)
  (define-fun |required(ezcsp__eq(nWeight(5),ezcsp__pl(nWeight(4),22)))| () Bool
    false)
  (define-fun |447| () Bool
    false)
  (define-fun |required(ezcsp__gt(nWeight(3),ezcsp__mn(ezcsp__pl(13,95),13)))| () Bool
    false)
  (define-fun |required(ezcsp__eq(nWeight(6),ezcsp__pl(nWeight(5),22)))| () Bool
    false)
  (define-fun |leafPos(5,1)| () Bool
    false)
  (define-fun |posColor(1,blue)| () Bool
    true)
  (define-fun |472| () Bool
    false)
  (define-fun |posColor(1,red)| () Bool
    false)
  (define-fun |required(ezcsp__leq(nWeight(1),ezcsp__mn(ezcsp__pl(88,33),33)))| () Bool
    false)
  (define-fun |leafPos(1,0)| () Bool
    false)
  (define-fun |required(ezcsp__eq(nWeight(1),126))| () Bool
    false)
  (define-fun |required(ezcsp__gt(nWeight(1),ezcsp__mn(ezcsp__pl(31,40),31)))| () Bool
    false)
  (define-fun |454| () Bool
    false)
  (define-fun |440| () Bool
    false)
  (define-fun |required(ezcsp__eq(nWeight(7),121))| () Bool
    false)
  (define-fun |leafPos(6,3)| () Bool
    false)
  (define-fun |leafPos(7,1)| () Bool
    false)
  (define-fun |leafPos(8,7)| () Bool
    false)
  (define-fun |required(ezcsp__leq(nWeight(4),ezcsp__mn(ezcsp__pl(53,98),53)))| () Bool
    false)
  (define-fun |required(ezcsp__eq(nWeight(6),71))| () Bool
    true)
  (define-fun |required(ezcsp__leq(nWeight(4),ezcsp__mn(ezcsp__pl(60,38),38)))| () Bool
    false)
  (define-fun |required(ezcsp__eq(nWeight(4),175))| () Bool
    false)
  (define-fun |leafPos(6,5)| () Bool
    false)
  (define-fun |posColor(7,green)| () Bool
    false)
  (define-fun |required(ezcsp__eq(nWeight(2),ezcsp__pl(nWeight(1),53)))| () Bool
    true)
  (define-fun |leafPos(1,1)| () Bool
    false)
  (define-fun |required(ezcsp__eq(nWeight(5),98))| () Bool
    true)
  (define-fun |required(ezcsp__eq(nWeight(1),130))| () Bool
    false)
  (define-fun |required(ezcsp__leq(nWeight(2),ezcsp__mn(ezcsp__pl(88,33),33)))| () Bool
    false)
  (define-fun |required(ezcsp__gt(nWeight(4),ezcsp__mn(ezcsp__pl(92,83),83)))| () Bool
    false)
  (define-fun |required(ezcsp__eq(nWeight(1),53))| () Bool
    false)
  (define-fun |476| () Bool
    false)
  (define-fun |477| () Bool
    false)
  (define-fun |required(ezcsp__eq(nWeight(3),151))| () Bool
    false)
  (define-fun |leafPos(3,6)| () Bool
    false)
  (define-fun |required(ezcsp__eq(nWeight(3),165))| () Bool
    false)
  (define-fun |required(ezcsp__eq(nWeight(4),ezcsp__pl(nWeight(3),83)))| () Bool
    false)
  (define-fun |required(ezcsp__eq(nWeight(5),ezcsp__pl(nWeight(4),83)))| () Bool
    false)
  (define-fun |leafPos(3,5)| () Bool
    false)
  (define-fun |posColor(2,red)| () Bool
    true)
  (define-fun |438| () Bool
    false)
  (define-fun |leafPos(5,2)| () Bool
    true)
  (define-fun |required(ezcsp__eq(nWeight(5),ezcsp__pl(nWeight(4),13)))| () Bool
    false)
  (define-fun |leafPos(4,4)| () Bool
    false)
  (define-fun |required(ezcsp__leq(nWeight(6),ezcsp__mn(ezcsp__pl(92,83),83)))| () Bool
    true)
  (define-fun |required(ezcsp__eq(nWeight(3),175))| () Bool
    false)
  (define-fun |required(ezcsp__leq(nWeight(5),ezcsp__mn(ezcsp__pl(13,95),13)))| () Bool
    false)
  (define-fun |leafPos(3,2)| () Bool
    false)
  (define-fun |required(ezcsp__eq(nWeight(7),ezcsp__pl(nWeight(6),31)))| () Bool
    false)
  (define-fun |posColor(7,blue)| () Bool
    true)
  (define-fun |leafPos(6,1)| () Bool
    false)
  (define-fun |required(ezcsp__eq(nWeight(5),ezcsp__pl(nWeight(4),31)))| () Bool
    false)
  (define-fun |required(ezcsp__leq(nWeight(4),ezcsp__mn(ezcsp__pl(71,94),71)))| () Bool
    false)
  (define-fun |required(ezcsp__leq(nWeight(5),ezcsp__mn(ezcsp__pl(60,38),38)))| () Bool
    false)
  (define-fun |required(ezcsp__eq(nWeight(7),ezcsp__pl(nWeight(6),38)))| () Bool
    false)
  (define-fun |required(ezcsp__eq(nWeight(4),ezcsp__pl(nWeight(3),53)))| () Bool
    false)
  (define-fun |required(ezcsp__gt(nWeight(4),ezcsp__mn(ezcsp__pl(88,33),33)))| () Bool
    false)
  (define-fun |leafPos(2,0)| () Bool
    false)
  (define-fun |required(ezcsp__gt(nWeight(1),ezcsp__mn(ezcsp__pl(88,33),33)))| () Bool
    false)
  (define-fun |required(ezcsp__eq(nWeight(5),71))| () Bool
    false)
  (define-fun |required(ezcsp__leq(nWeight(2),ezcsp__mn(ezcsp__pl(71,94),71)))| () Bool
    false)
  (define-fun |required(ezcsp__gt(nWeight(3),ezcsp__mn(ezcsp__pl(60,38),38)))| () Bool
    false)
  (define-fun |required(ezcsp__leq(nWeight(6),ezcsp__mn(ezcsp__pl(13,95),13)))| () Bool
    false)
  (define-fun |required(ezcsp__eq(nWeight(1),35))| () Bool
    false)
  (define-fun |posColor(7,red)| () Bool
    false)
  (define-fun |required(ezcsp__eq(nWeight(1),151))| () Bool
    false)
  (define-fun |posColor(6,green)| () Bool
    true)
  (define-fun |required(ezcsp__eq(nWeight(5),ezcsp__pl(nWeight(4),33)))| () Bool
    false)
  (define-fun |required(ezcsp__eq(nWeight(1),62))| () Bool
    false)
  (define-fun |required(ezcsp__eq(nWeight(1),154))| () Bool
    false)
  (define-fun |required(ezcsp__eq(nWeight(3),108))| () Bool
    false)
  (define-fun |required(ezcsp__eq(nWeight(2),165))| () Bool
    false)
  (define-fun |required(ezcsp__gt(nWeight(4),ezcsp__mn(ezcsp__pl(22,48),22)))| () Bool
    false)
  (define-fun |required(ezcsp__eq(nWeight(6),151))| () Bool
    false)
  (define-fun |435| () Bool
    false)
  (define-fun |required(ezcsp__leq(nWeight(3),ezcsp__mn(ezcsp__pl(88,33),33)))| () Bool
    false)
  (define-fun |required(ezcsp__leq(nWeight(3),ezcsp__mn(ezcsp__pl(71,94),71)))| () Bool
    true)
  (define-fun |452| () Bool
    false)
  (define-fun |481| () Bool
    false)
  (define-fun |required(ezcsp__eq(nWeight(3),ezcsp__pl(nWeight(2),22)))| () Bool
    false)
  (define-fun |leafPos(2,2)| () Bool
    false)
  (define-fun |leafPos(3,0)| () Bool
    false)
  (define-fun |required(ezcsp__eq(nWeight(4),ezcsp__pl(nWeight(3),38)))| () Bool
    false)
  (define-fun |457| () Bool
    false)
  (define-fun |required(ezcsp__eq(nWeight(3),121))| () Bool
    false)
  (define-fun |leafPos(8,2)| () Bool
    false)
  (define-fun |required(ezcsp__eq(nWeight(3),70))| () Bool
    true)
  (define-fun |leafPos(7,6)| () Bool
    true)
  (define-fun |required(ezcsp__eq(nWeight(4),ezcsp__pl(nWeight(3),13)))| () Bool
    false)
  (define-fun |required(ezcsp__gt(nWeight(5),ezcsp__mn(ezcsp__pl(13,95),13)))| () Bool
    false)
  (define-fun |required(ezcsp__eq(nWeight(1),70))| () Bool
    false)
  (define-fun |required(ezcsp__eq(nWeight(1),114))| () Bool
    false)
  (define-fun |required(ezcsp__gt(nWeight(5),ezcsp__mn(ezcsp__pl(60,38),38)))| () Bool
    false)
  (define-fun |required(ezcsp__leq(nWeight(4),ezcsp__mn(ezcsp__pl(13,95),13)))| () Bool
    false)
  (define-fun |required(ezcsp__gt(nWeight(1),ezcsp__mn(ezcsp__pl(92,83),83)))| () Bool
    false)
  (define-fun |required(ezcsp__leq(nWeight(5),ezcsp__mn(ezcsp__pl(88,33),33)))| () Bool
    false)
  (define-fun |required(ezcsp__eq(nWeight(7),ezcsp__pl(nWeight(6),83)))| () Bool
    true)
  (define-fun |leafPos(6,4)| () Bool
    false)
  (define-fun |required(ezcsp__leq(nWeight(4),ezcsp__mn(ezcsp__pl(88,33),33)))| () Bool
    false)
  (define-fun |required(ezcsp__eq(nWeight(2),ezcsp__pl(nWeight(1),13)))| () Bool
    false)
  (define-fun |leafPos(1,2)| () Bool
    false)
  (define-fun |required(ezcsp__eq(nWeight(2),ezcsp__pl(nWeight(1),31)))| () Bool
    false)
  (define-fun |required(ezcsp__eq(nWeight(1),145))| () Bool
    false)
  (define-fun |required(ezcsp__leq(nWeight(5),ezcsp__mn(ezcsp__pl(31,40),31)))| () Bool
    false)
  (define-fun |required(ezcsp__gt(nWeight(2),ezcsp__mn(ezcsp__pl(71,94),71)))| () Bool
    false)
  (define-fun |required(ezcsp__eq(nWeight(1),109))| () Bool
    false)
  (define-fun |required(ezcsp__eq(nWeight(6),121))| () Bool
    false)
  (define-fun |required(ezcsp__eq(nWeight(4),ezcsp__pl(nWeight(3),22)))| () Bool
    false)
  (define-fun |nWeight(1)| () Int
    46)
  (define-fun |required(ezcsp__leq(nWeight(1),ezcsp__mn(ezcsp__pl(13,95),13)))| () Bool
    false)
  (define-fun |required(ezcsp__eq(nWeight(7),71))| () Bool
    false)
  (define-fun |required(ezcsp__leq(nWeight(3),ezcsp__mn(ezcsp__pl(31,40),31)))| () Bool
    false)
  (define-fun |required(ezcsp__leq(nWeight(6),ezcsp__mn(ezcsp__pl(53,98),53)))| () Bool
    false)
  (define-fun |required(ezcsp__gt(nWeight(1),ezcsp__mn(ezcsp__pl(53,98),53)))| () Bool
    false)
  (define-fun |required(ezcsp__eq(nWeight(1),71))| () Bool
    false)
  (define-fun |442| () Bool
    false)
  (define-fun |required(ezcsp__leq(nWeight(5),ezcsp__mn(ezcsp__pl(53,98),53)))| () Bool
    false)
  (define-fun |required(ezcsp__gt(nWeight(5),ezcsp__mn(ezcsp__pl(53,98),53)))| () Bool
    false)
  (define-fun |469| () Bool
    false)
  (define-fun |453| () Bool
    false)
  (define-fun |required(ezcsp__gt(nWeight(5),ezcsp__mn(ezcsp__pl(22,48),22)))| () Bool
    false)
  (define-fun |439| () Bool
    false)
  (define-fun |leafPos(1,3)| () Bool
    false)
  (define-fun |443| () Bool
    false)
  (define-fun |required(ezcsp__leq(nWeight(6),ezcsp__mn(ezcsp__pl(88,33),33)))| () Bool
    false)
  (define-fun |leafPos(3,4)| () Bool
    false)
  (define-fun |473| () Bool
    false)
  (define-fun |leafPos(8,3)| () Bool
    false)
  (define-fun |required(ezcsp__eq(nWeight(1),105))| () Bool
    false)
  (define-fun |nWeight(7)| () Int
    154)
  (define-fun |required(ezcsp__leq(nWeight(2),ezcsp__mn(ezcsp__pl(92,83),83)))| () Bool
    false)
  (define-fun |required(ezcsp__eq(nWeight(1),175))| () Bool
    false)
  (define-fun |leafPos(5,3)| () Bool
    false)
  (define-fun |required(ezcsp__eq(nWeight(4),ezcsp__pl(nWeight(3),31)))| () Bool
    false)
  (define-fun |460| () Bool
    false)
  (define-fun |required(ezcsp__eq(nWeight(5),70))| () Bool
    false)
  (define-fun |456| () Bool
    false)
  (define-fun |445| () Bool
    false)
  (define-fun |required(ezcsp__eq(nWeight(1),121))| () Bool
    false)
  (define-fun |required(ezcsp__leq(nWeight(3),ezcsp__mn(ezcsp__pl(53,98),53)))| () Bool
    false)
  (define-fun |required(ezcsp__eq(nWeight(2),70))| () Bool
    false)
  (define-fun |required(ezcsp__gt(nWeight(6),ezcsp__mn(ezcsp__pl(31,40),31)))| () Bool
    false)
  (define-fun |required(ezcsp__gt(nWeight(3),ezcsp__mn(ezcsp__pl(22,48),22)))| () Bool
    false)
  (define-fun |required(ezcsp__eq(nWeight(3),98))| () Bool
    false)
  (define-fun |required(ezcsp__leq(nWeight(1),ezcsp__mn(ezcsp__pl(71,94),71)))| () Bool
    false)
  (define-fun |448| () Bool
    false)
  (define-fun |leafPos(5,4)| () Bool
    false)
  (define-fun |required(ezcsp__eq(nWeight(1),60))| () Bool
    false)
  (define-fun |leafPos(1,7)| () Bool
    false)
  (define-fun |leafPos(1,4)| () Bool
    true)
  (define-fun |required(ezcsp__leq(nWeight(6),ezcsp__mn(ezcsp__pl(31,40),31)))| () Bool
    false)
  (define-fun |required(ezcsp__eq(nWeight(1),82))| () Bool
    false)
  (define-fun |required(ezcsp__eq(nWeight(1),55))| () Bool
    false)
  (define-fun |required(ezcsp__eq(nWeight(5),151))| () Bool
    false)
  (define-fun |required(ezcsp__leq(nWeight(6),ezcsp__mn(ezcsp__pl(71,94),71)))| () Bool
    false)
  (define-fun |474| () Bool
    false)
  (define-fun |required(ezcsp__eq(nWeight(1),106))| () Bool
    false)
  (define-fun |required(ezcsp__gt(nWeight(3),ezcsp__mn(ezcsp__pl(88,33),33)))| () Bool
    false)
  (define-fun |required(ezcsp__eq(nWeight(7),175))| () Bool
    false)
  (define-fun |required(ezcsp__gt(nWeight(6),ezcsp__mn(ezcsp__pl(92,83),83)))| () Bool
    false)
  (define-fun |required(ezcsp__leq(nWeight(3),ezcsp__mn(ezcsp__pl(92,83),83)))| () Bool
    false)
  (define-fun |471| () Bool
    false)
  (define-fun |required(ezcsp__eq(nWeight(1),142))| () Bool
    false)
  (define-fun |466| () Bool
    false)
  (define-fun |required(ezcsp__eq(nWeight(2),ezcsp__pl(nWeight(1),38)))| () Bool
    false)
  (define-fun |436| () Bool
    false)
  (define-fun |leafPos(6,0)| () Bool
    true)
  (define-fun |leafPos(7,2)| () Bool
    false)
  (define-fun |required(ezcsp__eq(nWeight(1),73))| () Bool
    false)
  (define-fun |required(ezcsp__eq(nWeight(3),ezcsp__pl(nWeight(2),83)))| () Bool
    false)
  (define-fun |posColor(3,green)| () Bool
    true)
  (define-fun |475| () Bool
    false)
  (define-fun |required(ezcsp__leq(nWeight(1),ezcsp__mn(ezcsp__pl(53,98),53)))| () Bool
    true)
  (define-fun |465| () Bool
    false)
  (define-fun |449| () Bool
    false)
  (define-fun |required(ezcsp__leq(nWeight(4),ezcsp__mn(ezcsp__pl(22,48),22)))| () Bool
    false)
  (define-fun |leafPos(8,0)| () Bool
    false)
  (define-fun |required(ezcsp__eq(nWeight(1),119))| () Bool
    false)
  (define-fun |required(ezcsp__eq(nWeight(1),123))| () Bool
    false)
  (define-fun |required(ezcsp__eq(nWeight(5),175))| () Bool
    false)
  (define-fun |posColor(5,green)| () Bool
    true)
  (define-fun |required(ezcsp__leq(nWeight(1),ezcsp__mn(ezcsp__pl(31,40),31)))| () Bool
    false)
  (define-fun |required(ezcsp__leq(nWeight(3),ezcsp__mn(ezcsp__pl(60,38),38)))| () Bool
    false)
  (define-fun |required(ezcsp__eq(nWeight(1),104))| () Bool
    false)
  (define-fun |required(ezcsp__eq(nWeight(7),151))| () Bool
    false)
  (define-fun |leafPos(8,4)| () Bool
    false)
  (define-fun |required(ezcsp__eq(nWeight(1),163))| () Bool
    false)
  (define-fun |required(ezcsp__gt(nWeight(1),ezcsp__mn(ezcsp__pl(13,95),13)))| () Bool
    false)
  (define-fun |required(ezcsp__leq(nWeight(2),ezcsp__mn(ezcsp__pl(60,38),38)))| () Bool
    false)
  (define-fun |required(ezcsp__gt(nWeight(4),ezcsp__mn(ezcsp__pl(71,94),71)))| () Bool
    false)
  (define-fun |leafPos(3,3)| () Bool
    false)
  (define-fun |posColor(4,red)| () Bool
    true)
  (define-fun |required(ezcsp__eq(nWeight(4),71))| () Bool
    false)
  (define-fun |leafPos(5,6)| () Bool
    false)
  (define-fun |required(ezcsp__eq(nWeight(6),70))| () Bool
    false)
  (define-fun |required(ezcsp__eq(nWeight(6),ezcsp__pl(nWeight(5),38)))| () Bool
    false)
  (define-fun |required(ezcsp__eq(nWeight(7),ezcsp__pl(nWeight(6),22)))| () Bool
    false)
  (define-fun |required(ezcsp__eq(nWeight(2),108))| () Bool
    false)
  (define-fun |required(ezcsp__eq(nWeight(7),ezcsp__pl(nWeight(6),13)))| () Bool
    false)
  (define-fun |429| () Bool
    false)
  (define-fun |nWeight(4)| () Int
    141)
  (define-fun |required(ezcsp__eq(nWeight(1),165))| () Bool
    false)
  (define-fun |required(ezcsp__leq(nWeight(2),ezcsp__mn(ezcsp__pl(53,98),53)))| () Bool
    false)
  (define-fun |required(ezcsp__leq(nWeight(5),ezcsp__mn(ezcsp__pl(92,83),83)))| () Bool
    false)
  (define-fun |463| () Bool
    false)
  (define-fun |required(ezcsp__gt(nWeight(6),ezcsp__mn(ezcsp__pl(53,98),53)))| () Bool
    false)
  (define-fun |nWeight(2)| () Int
    99)
  (define-fun |426| () Bool
    true)
  (define-fun |label_order(nWeight(1),1)| () Bool
    true)
  (define-fun |label_order(nWeight(2),1)| () Bool
    true)
  (define-fun |label_order(nWeight(3),1)| () Bool
    true)
  (define-fun |label_order(nWeight(4),1)| () Bool
    true)
  (define-fun |label_order(nWeight(5),1)| () Bool
    true)
  (define-fun |label_order(nWeight(6),1)| () Bool
    true)
  (define-fun |label_order(nWeight(7),1)| () Bool
    true)
  (define-fun |required(ezcsp__sum(list(nWeight,1),ezcsp__leq,679))| () Bool
    true)
  (define-fun |172| () Bool
    true)
  (define-fun |171| () Bool
    true)
  (define-fun |167| () Bool
    true)
  (define-fun |166| () Bool
    true)
  (define-fun |162| () Bool
    true)
  (define-fun |161| () Bool
    true)
  (define-fun |157| () Bool
    true)
  (define-fun |156| () Bool
    true)
  (define-fun |152| () Bool
    true)
  (define-fun |151| () Bool
    true)
  (define-fun |147| () Bool
    true)
  (define-fun |146| () Bool
    true)
  (define-fun |139| () Bool
    true)
  (define-fun |138| () Bool
    true)
  (define-fun |129| () Bool
    true)
  (define-fun |128| () Bool
    true)
  (define-fun |119| () Bool
    true)
  (define-fun |118| () Bool
    true)
  (define-fun |109| () Bool
    true)
  (define-fun |108| () Bool
    true)
  (define-fun |99| () Bool
    true)
  (define-fun |98| () Bool
    true)
  (define-fun |89| () Bool
    true)
  (define-fun |88| () Bool
    true)
  (define-fun |79| () Bool
    true)
  (define-fun |78| () Bool
    true)
  (define-fun |69| () Bool
    false)
  (define-fun |68| () Bool
    true)
  (define-fun |67| () Bool
    true)
  (define-fun |location(7)| () Bool
    true)
  (define-fun |location(6)| () Bool
    true)
  (define-fun |location(5)| () Bool
    true)
  (define-fun |location(4)| () Bool
    true)
  (define-fun |location(3)| () Bool
    true)
  (define-fun |location(2)| () Bool
    true)
  (define-fun |location(1)| () Bool
    true)
  (define-fun |leafCost(3,83)| () Bool
    true)
  (define-fun |leafCost(4,38)| () Bool
    true)
  (define-fun |leafCost(8,33)| () Bool
    true)
  (define-fun |leafCost(1,71)| () Bool
    true)
  (define-fun |leafCost(2,22)| () Bool
    true)
  (define-fun |leafCost(5,53)| () Bool
    true)
  (define-fun |leafCost(6,13)| () Bool
    true)
  (define-fun |leafCost(7,31)| () Bool
    true)
  (define-fun |cspvar(nWeight(1),0,679)| () Bool
    true)
  (define-fun |cspvar(nWeight(2),0,679)| () Bool
    true)
  (define-fun |cspvar(nWeight(3),0,679)| () Bool
    true)
  (define-fun |cspvar(nWeight(4),0,679)| () Bool
    true)
  (define-fun |cspvar(nWeight(5),0,679)| () Bool
    true)
  (define-fun |cspvar(nWeight(6),0,679)| () Bool
    true)
  (define-fun |cspvar(nWeight(7),0,679)| () Bool
    true)
  (define-fun |coloredPos(7)| () Bool
    true)
  (define-fun |coloredPos(6)| () Bool
    true)
  (define-fun |coloredPos(5)| () Bool
    true)
  (define-fun |coloredPos(4)| () Bool
    true)
  (define-fun |coloredPos(3)| () Bool
    true)
  (define-fun |coloredPos(2)| () Bool
    true)
  (define-fun |coloredPos(1)| () Bool
    true)
  (define-fun |leaf(1)| () Bool
    true)
  (define-fun |leaf(2)| () Bool
    true)
  (define-fun |leaf(3)| () Bool
    true)
  (define-fun |leaf(4)| () Bool
    true)
  (define-fun |leaf(5)| () Bool
    true)
  (define-fun |leaf(6)| () Bool
    true)
  (define-fun |leaf(7)| () Bool
    true)
  (define-fun |leaf(8)| () Bool
    true)
  (define-fun |max_total_weight(679)| () Bool
    true)
  (define-fun |num(8)| () Bool
    true)
  (define-fun |innerNode(7)| () Bool
    true)
  (define-fun |innerNode(6)| () Bool
    true)
  (define-fun |innerNode(5)| () Bool
    true)
  (define-fun |innerNode(4)| () Bool
    true)
  (define-fun |innerNode(3)| () Bool
    true)
  (define-fun |innerNode(2)| () Bool
    true)
  (define-fun |innerNode(1)| () Bool
    true)
  (define-fun |leafWeightCardinality(8,88,33)| () Bool
    true)
  (define-fun |leafWeightCardinality(7,31,40)| () Bool
    true)
  (define-fun |leafWeightCardinality(6,13,95)| () Bool
    true)
  (define-fun |leafWeightCardinality(5,53,98)| () Bool
    true)
  (define-fun |leafWeightCardinality(4,60,38)| () Bool
    true)
  (define-fun |leafWeightCardinality(3,92,83)| () Bool
    true)
  (define-fun |leafWeightCardinality(2,22,48)| () Bool
    true)
  (define-fun |leafWeightCardinality(1,71,94)| () Bool
    true)
  (define-fun |location(0)| () Bool
    true)
  (define-fun |color(green)| () Bool
    true)
  (define-fun |color(blue)| () Bool
    true)
  (define-fun |color(red)| () Bool
    true)
)
